sat
(:SPACER-cex-depth                    3
 :SPACER-expand-pob-undef             3
 :SPACER-inductive-gen                8
 :SPACER-inductive-gen-weaken-fail    9
 :SPACER-inductive-gen-weaken-success 2
 :SPACER-max-depth                    3
 :SPACER-max-query-lvl                3
 :SPACER-num-active-lemmas            9
 :SPACER-num-ctp-blocked              1
 :SPACER-num-is_invariant             7
 :SPACER-num-lemmas                   11
 :SPACER-num-pobs                     9
 :SPACER-num-queries                  11
 :SPACER-num-reach-queries            3
 :SPACER-num-reuse-reach-facts        1
 :added-eqs                           4102
 :arith-assert-diseq                  1072
 :arith-assert-lower                  2946
 :arith-assert-upper                  2692
 :arith-bound-prop                    628
 :arith-branch-var                    36
 :arith-conflicts                     84
 :arith-eq-adapter                    620
 :arith-fixed-eqs                     818
 :arith-gcd-tests                     168
 :arith-gomory-cuts                   12
 :arith-ineq-splits                   36
 :arith-num-rows                      126
 :arith-offset-eqs                    382
 :arith-patches                       56
 :arith-patches_succ                  2
 :arith-pivots                        622
 :arith-row-summations                5604
 :arith-tableau-max-columns           212
 :arith-tableau-max-rows              126
 :conflicts                           186
 :decisions                           2640
 :del-clause                          1420
 :final-checks                        116
 :iuc_solver.num_proxies              33
 :max-memory                          30.99
 :memory                              30.99
 :minimized-lits                      172
 :mk-bool-var                         2526
 :mk-clause                           2696
 :num-allocs                          5957284
 :num-checks                          132
 :pool_solver.checks                  66
 :pool_solver.checks.sat              19
 :pool_solver.checks.undef            12
 :propagations                        8984
 :rlimit-count                        115470
 :time                                0.07
 :time.iuc_solver.get_iuc             0.00
 :time.iuc_solver.get_iuc.hyp_reduce1 0.00
 :time.iuc_solver.get_iuc.hyp_reduce2 0.00
 :time.pool_solver.smt.total          0.04
 :time.pool_solver.smt.total.sat      0.01
 :time.pool_solver.smt.total.undef    0.01
 :time.spacer.init_rules              0.00
 :time.spacer.mbp                     0.00
 :time.spacer.solve                   0.06
 :time.spacer.solve.propagate         0.00
 :time.spacer.solve.reach             0.06
 :time.spacer.solve.reach.children    0.00
 :time.spacer.solve.reach.cluster     0.00
 :time.spacer.solve.reach.gen.ind     0.01
 :time.spacer.solve.reach.is-reach    0.00)
(:max-memory   30.99
 :memory       30.99
 :num-allocs   5957284
 :rlimit-count 115470
 :time         0.07
 :total-time   0.09)
